p edge 26 61
e 1 10
e 1 12
e 1 14
e 1 17
e 1 18
e 2 7
e 2 21
e 3 11
e 3 15
e 4 12
e 5 6
e 5 8
e 5 20
e 6 21
e 6 24
e 7 8
e 7 13
e 7 17
e 7 19
e 7 24
e 8 10
e 8 18
e 8 19
e 9 12
e 9 15
e 9 23
e 10 18
e 10 19
e 11 13
e 11 16
e 11 22
e 11 25
e 12 15
e 12 16
e 12 18
e 12 20
e 12 21
e 12 24
e 13 14
e 13 15
e 13 25
e 14 16
e 14 17
e 14 25
e 14 26
e 15 18
e 15 20
e 15 23
e 15 24
e 16 18
e 16 19
e 16 24
e 17 26
e 18 20
e 18 21
e 18 24
e 18 26
e 19 25
e 22 26
e 23 24
e 23 25
